SumColouring/MiniZinc model/Experiments/10_0.10_3.col.dzn
% Data file generated from RandomInstances/10_0.10_3.col DIMACS file
size = 10;

chi = 1;

adjacency = [|0,0,0,0,0,0,0,0,0,0,
|0,0,0,0,0,0,0,0,0,0,
|0,0,0,0,0,0,0,0,0,0,
|0,0,0,0,0,0,0,0,0,0,
|0,0,0,0,0,0,0,0,0,0,
|0,0,0,0,0,0,0,0,0,0,
|0,0,0,0,0,0,0,0,0,0,
|0,0,0,0,0,0,0,0,0,0,
|0,0,0,0,0,0,0,0,0,0,
|0,0,0,0,0,0,0,0,0,0,
|];